2032
1944
1943
1920
1847
1820
1748
1664
1565
1559
1474
1448
1396
1378
1366
1338
1290
1258
1222
1221
1218
1205
1202
1187
1164
1137
1134
1133
1130
1129
1118
1113
1112
1107
1103
1074
1065
1058
1051
1050
1048
1047
1030
1024
1003
1002
997
963
940
937
